g3 0 1 0	# problem d6n6R3R6d005d1
 6 8 1 0 3	# vars, constraints, objectives, ranges, eqns
 4 1	# nonlinear constraints, objectives
 0 0	# network constraints: nonlinear, linear
 6 6 6	# nonlinear vars in constraints, objectives, both
 0 0 0 1	# linear network variables; functions; arith, flags
 0 0 0 0 0	# discrete variables: binary, integer, nonlinear (b,c,o)
 48 6	# nonzeros in Jacobian, gradients
 0 0	# max name lengths: constraints, variables
 0 0 0 0 0	# common exprs: b,c,o,c1,o1
b
0 0.39 2.68
0 0.91 2.64
0 0.81 2.69
0 0.86 2.48
0 0.22 2.6
0 0.21 2.85
r
2 81.317
2 45.97
2 296.92
2 494.73
4 44.2605
4 54.3081
4 57.4284
2 37.0487
C0
o0
o2
o2
n8.12
v0
v5
o2
o2
n8.59
v1
v4
C1
o1
o2
o2
n4.92
v0
v5
o2
o2
n7.37
v1
v4
C2
o54
11
o2
o2
n1.9
v0
v5
o2
o2
n6.4
v1
v4
o2
o2
o2
o2
n1.74
v0
v1
v1
v5
o2
o2
o2
o2
n8.08
v0
v1
v3
v3
o16
o2
o2
o2
o2
n3.71
v0
v1
v4
v4
o2
o2
o2
o2
n6.62
v0
v2
v5
v5
o2
o2
o2
o2
n2.96
v0
v4
v4
v5
o2
o2
o2
o2
n6.94
v1
v1
v3
v3
o2
o2
o2
o2
n0.85
v2
v2
v2
v4
o2
o2
o2
o2
n5
v2
v3
v5
v5
o2
o2
o2
o2
n4.46
v3
v5
v5
v5
C3
o54
17
o2
o2
n4.62
v0
v5
o2
o2
n0.76
v1
v4
o2
o2
o2
o2
n5.47
v0
v1
v1
v5
o2
o2
o2
o2
n1.7
v0
v1
v3
v3
o2
o2
o2
o2
n2.83
v0
v1
v4
v4
o2
o2
o2
o2
n2.8
v0
v2
v5
v5
o2
o2
o2
o2
n1.98
v0
v4
v4
v5
o2
o2
o2
o2
n9.85
v1
v1
v3
v3
o2
o2
o2
o2
n0.08
v2
v2
v2
v4
o2
o2
o2
o2
n2.21
v2
v3
v5
v5
o16
o2
o2
o2
o2
n3.98
v3
v5
v5
v5
o2
o2
o2
o2
o2
n4.91
v0
v0
v0
v2
v5
o2
o2
o2
o2
o2
n1.7
v0
v2
v2
v2
v3
o2
o2
o2
o2
o2
n5.4
v1
v1
v2
v4
v5
o2
o2
o2
o2
o2
n5.76
v1
v2
v3
v3
v4
o2
o2
o2
o2
o2
n5.25
v1
v2
v4
v5
v5
o2
o2
o2
o2
o2
n0.86
v2
v2
v5
v5
v5
C4
n0
C5
n0
C6
n0
C7
n0
O0 0
o54
46
o2
o2
n4.14
v0
v5
o2
o2
n8.23
v1
v4
o2
o2
o2
o2
n1.95
v0
v1
v1
v5
o2
o2
o2
o2
n2.28
v0
v1
v3
v3
o2
o2
o2
o2
n9.47
v0
v1
v4
v4
o2
o2
o2
o2
n4.56
v0
v2
v5
v5
o2
o2
o2
o2
n9.75
v0
v4
v4
v5
o2
o2
o2
o2
n1.63
v1
v1
v3
v3
o2
o2
o2
o2
n4.24
v2
v2
v2
v4
o2
o2
o2
o2
n7.81
v2
v3
v5
v5
o2
o2
o2
o2
n2.44
v3
v5
v5
v5
o2
o2
o2
o2
o2
n4.2
v0
v0
v0
v2
v5
o2
o2
o2
o2
o2
n5.71
v0
v2
v2
v2
v3
o2
o2
o2
o2
o2
n5.88
v1
v1
v2
v4
v5
o2
o2
o2
o2
o2
n4.47
v1
v2
v3
v3
v4
o2
o2
o2
o2
o2
n8.8
v1
v2
v4
v5
v5
o2
o2
o2
o2
o2
n2.66
v2
v2
v5
v5
v5
o2
o2
o2
o2
o2
o2
n2.92
v0
v0
v0
v0
v2
v5
o2
o2
o2
o2
o2
o2
n8.77
v0
v0
v0
v1
v1
v4
o2
o2
o2
o2
o2
o2
n3.22
v0
v0
v1
v1
v4
v5
o2
o2
o2
o2
o2
o2
n7.17
v0
v0
v1
v2
v2
v3
o2
o2
o2
o2
o2
o2
n5.1
v0
v0
v1
v3
v3
v3
o2
o2
o2
o2
o2
o2
n9.16
v0
v0
v2
v2
v2
v2
o2
o2
o2
o2
o2
o2
n5.68
v0
v0
v2
v2
v3
v5
o2
o2
o2
o2
o2
o2
n7.57
v0
v0
v2
v5
v5
v5
o2
o2
o2
o2
o2
o2
n7.72
v0
v0
v3
v3
v3
v4
o2
o2
o2
o2
o2
o2
n3.99
v0
v1
v1
v5
v5
v5
o2
o2
o2
o2
o2
o2
n7.51
v0
v1
v2
v2
v4
v4
o16
o2
o2
o2
o2
o2
o2
n2.79
v0
v1
v2
v2
v5
v5
o2
o2
o2
o2
o2
o2
n3.5
v0
v2
v2
v4
v4
v5
o2
o2
o2
o2
o2
o2
n0.97
v0
v2
v3
v3
v3
v5
o2
o2
o2
o2
o2
o2
n7.08
v0
v2
v3
v3
v4
v5
o16
o2
o2
o2
o2
o2
o2
n7.79
v0
v2
v3
v5
v5
v5
o2
o2
o2
o2
o2
o2
n2.17
v0
v2
v4
v4
v5
v5
o2
o2
o2
o2
o2
o2
n3.37
v0
v3
v5
v5
v5
v5
o16
o2
o2
o2
o2
o2
o2
n5.06
v0
v4
v4
v4
v4
v5
o2
o2
o2
o2
o2
o2
n0.33
v1
v1
v1
v2
v2
v4
o2
o2
o2
o2
o2
o2
n1.28
v1
v1
v1
v2
v3
v3
o16
o2
o2
o2
o2
o2
o2
n7.36
v1
v1
v2
v2
v4
v4
o2
o2
o2
o2
o2
o2
n0.79
v1
v2
v2
v2
v5
v5
o2
o2
o2
o2
o2
o2
n9.01
v1
v2
v3
v3
v5
v5
o2
o2
o2
o2
o2
o2
n8.28
v1
v2
v3
v4
v4
v4
o2
o2
o2
o2
o2
o2
n0.64
v1
v2
v5
v5
v5
v5
o2
o2
o2
o2
o2
o2
n0.01
v1
v3
v3
v3
v3
v3
o2
o2
o2
o2
o2
o2
n2.52
v1
v3
v3
v3
v4
v4
o2
o2
o2
o2
o2
o2
n3.82
v1
v3
v3
v4
v4
v5
k5
8
16
24
32
40
J0 6
0 7.74
1 7.47
2 3.42
3 0.13
4 0.66
5 5.54
J1 6
0 1.44
1 4.53
2 8.39
3 7.97
4 2.43
5 7.32
J2 6
0 1.4
1 8.03
2 2.12
3 1.81
4 2.22
5 8.02
J3 6
0 5.98
1 2.97
2 3.88
3 6.07
4 0.2
5 4.92
J4 6
0 8.99
1 6.15
2 0.11
3 2.4
4 0.78
5 9.31
J5 6
0 8.58
1 4.37
2 6.66
3 8.75
4 4.47
5 0.53
J6 6
0 5.8
1 6.69
2 4.03
3 5.48
4 4.16
5 9.53
J7 6
0 -7.6
1 8.56
2 1.3
3 8.96
4 9.79
5 1.62
G0 6
0 0.19
1 2.94
2 -2
3 2.54
4 1.96
5 6.12
